&projwfc
   outdir           = '/home/max/QuantumESPRESSO-school-2023/Day4/exercise2/postproc/TMP'
   prefix           = 'kc_bands'
   deltae           = 0.01
   degauss          = 0.01
   filpdos          = 'si'
/
