Phonons on a uniform q-grid
 &inputph
  prefix='AlAs',           ! Specify a prefix (it has to be the same as in pw.AlAs.in)
  tr2_ph = 1.0d-14,
  recover = .false.
  ldisp = .true.,
  nq1 =  4               ! Specify a uniform q-grid
  nq2 =  4
  nq3 =  4
  outdir='./tmp'
  fildyn='AlAs.dyn',
 /
