&inputpp
   outdir           = '/home/max/QuantumESPRESSO-school-2023/Day4/exercise2/init/TMP'
   prefix           = 'kc'
   seedname         = 'wann'
   wan_mode         = 'standalone'
/
