--
&inputph
  prefix   = 'mgb2',
  fildyn   = 'mgb2.dyn.xml',
  fildvscf = 'dvscf',
  tr2_ph   =  1.0d-16
  ldisp    = .true.,
  nq1 = 3,
  nq2 = 3,
  nq3 = 3,
 /
