&CONTROL
   calculation      = 'cp'
   verbosity        = 'low'
   restart_mode     = 'from_scratch'
   iprint           = 1
   outdir           = '../TMP-CP/'
   prefix           = 'kc'
   disk_io          = 'high'
   pseudo_dir       = '/home/max/koopmans/src/koopmans/pseudopotentials/sg15_v1.2/pbe/'
   ndr              = 50
   ndw              = 50
/
&SYSTEM
   ibrav            = 0
   nbnd             = 10
   ecutwfc          = 50.0
   nspin            = 2
   do_orbdep        = .false.
   fixed_state      = .false.
   do_ee            = .true.
   nelec            = 18
   nelup            = 9
   neldw            = 9
   ntyp             = 1
   nat              = 3
/
&ELECTRONS
   conv_thr         = 1.8000000000000002e-08
   ortho_para       = 1
   maxiter          = 300
   empty_states_maxstep = 300
   electron_dynamics = 'cg'
   passop           = 2.0
   do_outerloop     = .true.
   do_outerloop_empty = .true.
/
&IONS
/
&CELL
/
&EE
   which_compensation = 'tcc'
/

ATOMIC_SPECIES
O  15.999 O_ONCV_PBE-1.2.upf

CELL_PARAMETERS angstrom
8.17380000000000 0.00000000000000 0.00000000000000
0.00000000000000 6.00000000000000 0.00000000000000
0.00000000000000 0.00000000000000 6.66000000000000

ATOMIC_POSITIONS angstrom
O  4.0869000000 3.0000000000 2.8900000000
O  5.1738000000 3.0000000000 3.5500000000
O  3.0000000000 3.0000000000 3.5500000000

